111111111111111111111111111111111
101000001000001000100000000010001
101011101011101110101110111011101
100010001000100000100010001000001
101110111010111011111111101111101
100010000010100000001010001000001
101011111010111010101010101110111
101000001010101010100000100010001
111011101111101011111111111011101
100010101010000000100000001010001
111110111010111111111110111011111
101010001000000010100000100000101
101011101010111110111010101111101
100010000010001000100010001010001
111010111010101010101111111011101
100000001010100010100000000010101
111011101110111011111111111010101
101010001000001000001000100010001
101010111111101111111110111010111
101010100010100000000000100010001
101011101110101111111111111010111
101000000010101000001000000000101
101110101110111110111111111110101
100010100010000010001000001000001
111011111010111110111011101111101
101000000000100010001010000000001
101110111111101111101111101111101
101010000010000000100000001010001
101010111011101110111111111011101
100000100000101010001000101000001
101111101011111010101110101110101
101000001010000000100000000000101
111111111111111111111111111111111
